%%%mzn-stat: initTime=0.006741917
%%%mzn-stat: objective=583
%%%mzn-stat: nodes=701
%%%mzn-stat: restarts=0
%%%mzn-stat: peakDepth=110
%%%mzn-stat: solveTime=0.029243623
%%%mzn-stat: variables=293
%%%mzn-stat: propagators=194
%%%mzn-stat: failures=590
%%%mzn-stat: propagations=57030
%%%mzn-stat: nogoods=590
%%%mzn-stat: AverageConflictSize=2.5152542372881355
%%%mzn-stat: NumUnitNogoodsLearned=582
%%%mzn-stat: AverageLearnedNogoodLength=1.123728813559322
%%%mzn-stat: AverageBacktrackAmount=0
%%%mzn-stat: AverageLbd=1.0186440677966102
%%%mzn-stat-end
maxleg = 583;
succ = array1d(1..20,[16, 4, 2, 8, 19, 17, 10, 12, 20, 6, 18, 1, 11, 3, 5, 13, 15, 9, 14, 7]);
% time elapsed: 10.10 s
----------
==========
% time elapsed: 10.10 s
%%%mzn-stat: initTime=0.006741917
%%%mzn-stat: objective=583
%%%mzn-stat: nodes=701
%%%mzn-stat: restarts=0
%%%mzn-stat: peakDepth=110
%%%mzn-stat: solveTime=0.029251311
%%%mzn-stat: variables=293
%%%mzn-stat: propagators=194
%%%mzn-stat: failures=590
%%%mzn-stat: propagations=57030
%%%mzn-stat: nogoods=590
%%%mzn-stat: AverageConflictSize=2.5152542372881355
%%%mzn-stat: NumUnitNogoodsLearned=582
%%%mzn-stat: AverageLearnedNogoodLength=1.123728813559322
%%%mzn-stat: AverageBacktrackAmount=0
%%%mzn-stat: AverageLbd=1.0186440677966102
%%%mzn-stat-end
